% Auto-generated by scripts/generate_dzn.py
% problem_type   = regex
% instance       = regex_23
% source_json    = instances_json/1_medium_blowup/regex_23.json
% blowup         = 4.0
% representation = DFA

mode = 0;

var_count = 7;
Q = 28;
S = 2;
q0 = 1;
F = {17, 18, 19, 20, 21, 22, 23, 24, 25, 26, 27, 28};
d_dfa = array2d(1..28, 1..2, [
  1, 2,
  1, 3,
  5, 4,
  7, 6,
  9, 8,
  11, 10,
  13, 12,
  15, 14,
  15, 16,
  18, 17,
  20, 19,
  22, 21,
  22, 23,
  25, 24,
  27, 26,
  27, 28,
  18, 17,
  20, 19,
  22, 21,
  22, 23,
  25, 24,
  27, 26,
  27, 28,
  7, 6,
  9, 8,
  1, 3,
  1, 2,
  5, 4
]);
d_nfa = array2d(1..28, 1..2, [
  {}, {},
  {}, {},
  {}, {},
  {}, {},
  {}, {},
  {}, {},
  {}, {},
  {}, {},
  {}, {},
  {}, {},
  {}, {},
  {}, {},
  {}, {},
  {}, {},
  {}, {},
  {}, {},
  {}, {},
  {}, {},
  {}, {},
  {}, {},
  {}, {},
  {}, {},
  {}, {},
  {}, {},
  {}, {},
  {}, {},
  {}, {},
  {}, {}
]);
